
Gurobi 11.0.0 (win64) logging started Sat Jun 15 09:52:38 2024

Set parameter LogFile to value "./GurobiLog/stage_2_iter_10.log"
Gurobi Optimizer version 11.0.0 build v11.0.0rc2 (win64 - Windows 10.0 (18363.2))

CPU model: Intel(R) Core(TM) i7-8700 CPU @ 3.20GHz, instruction set [SSE2|AVX|AVX2]
Thread count: 6 physical cores, 12 logical processors, using up to 1 threads

Optimize a model with 1491 rows, 20460 columns and 74816 nonzeros
Coefficient statistics:
  Matrix range     [1e-02, 7e+03]
  Objective range  [1e-01, 2e+05]
  Bounds range     [2e-01, 5e+05]
  RHS range        [1e+00, 6e+04]
LP warm-start: use basis
Iteration    Objective       Primal Inf.    Dual Inf.      Time
       0    1.4111978e+04   1.264138e+04   0.000000e+00      0s
     114    2.3778640e+04   0.000000e+00   0.000000e+00      0s

Solved in 114 iterations and 0.01 seconds (0.01 work units)
Optimal objective  2.377864001e+04

Gurobi 11.0.0 (win64) logging started Sat Jun 15 10:50:59 2024

Set parameter LogFile to value "./GurobiLog/stage_2_iter_10.log"
Gurobi Optimizer version 11.0.0 build v11.0.0rc2 (win64 - Windows 10.0 (18363.2))

CPU model: Intel(R) Core(TM) i7-8700 CPU @ 3.20GHz, instruction set [SSE2|AVX|AVX2]
Thread count: 6 physical cores, 12 logical processors, using up to 1 threads

Optimize a model with 1491 rows, 20460 columns and 76567 nonzeros
Coefficient statistics:
  Matrix range     [3e-03, 1e+04]
  Objective range  [1e-01, 2e+05]
  Bounds range     [1e+00, 5e+05]
  RHS range        [1e+00, 5e+04]
LP warm-start: use basis
Iteration    Objective       Primal Inf.    Dual Inf.      Time
       0    1.7126532e+04   3.883883e+04   0.000000e+00      0s
     285    2.7484179e+04   0.000000e+00   0.000000e+00      0s

Solved in 285 iterations and 0.02 seconds (0.04 work units)
Optimal objective  2.748417869e+04
